solution status: optimal solution found
objective value:                                    0
shell_i_$_210__0                                    1 	(obj:0)
shell_i_$_281__0                                    1 	(obj:0)
shell_j_$_43__0                                     1 	(obj:0)
shell_i_$_220__0                                    1 	(obj:0)
shell_i_thingy.thingy.chamber[0].first.ring__0                    1 	(obj:0)
shell_j_$_176__0                                    1 	(obj:0)
shell_j_$_76__0                                     1 	(obj:0)
shell_i_$_178__0                                    1 	(obj:0)
shell_j_$_249__0                                    1 	(obj:0)
shell_i_$_196__0                                    1 	(obj:0)
shell_j_$_240__0                                    1 	(obj:0)
shell_j_$_60__0                                     1 	(obj:0)
shell_i_$_206__0                                    1 	(obj:0)
shell_i_$_260__0                                    1 	(obj:0)
shell_j_$_49                                        1 	(obj:0)
shell_i_$_299__0                                    1 	(obj:0)
shell_j_thingy.thingy.chamber[4].first.ring__0                    1 	(obj:0)
shell_i_$_64__0                                     1 	(obj:0)
shell_j_$_320__0                                    1 	(obj:0)
shell_i_$_225__0                                    1 	(obj:0)
shell_i_$_231__0                                    1 	(obj:0)
shell_j_$_47__0                                     1 	(obj:0)
shell_i_$_188__0                                    1 	(obj:0)
shell_i_$_217__0                                    1 	(obj:0)
shell_i_$_272__0                                    1 	(obj:0)
shell_j_$_82__0                                     1 	(obj:0)
shell_i_thingy.thingy.chamber[1].first.ring__0                    1 	(obj:0)
shell_j_$_55__0                                     1 	(obj:0)
shell_j_$_254__0                                    1 	(obj:0)
shell_i_$_74__0                                     1 	(obj:0)
shell_i_$_224__0                                    1 	(obj:0)
shell_i_$_247__0                                    1 	(obj:0)
shell_i_$_235__0                                    1 	(obj:0)
shell_j_$_256__0                                    1 	(obj:0)
shell_j_$_62__0                                     1 	(obj:0)
shell_j_$_222__0                                    1 	(obj:0)
shell_j_$_50                                        1 	(obj:0)
shell_j_$_80__0                                     1 	(obj:0)
shell_j_$_174__0                                    1 	(obj:0)
shell_j_$_304__0                                    1 	(obj:0)
shell_i_$_190__0                                    1 	(obj:0)
shell_j_$_81__0                                     1 	(obj:0)
shell_j_$_180__0                                    1 	(obj:0)
shell_j_$_273__0                                    1 	(obj:0)
shell_j_$_241__0                                    1 	(obj:0)
shell_j_$_242__0                                    1 	(obj:0)
shell_j_$_83__0                                     1 	(obj:0)
shell_j_thingy.thingy.prep.ring__0                    1 	(obj:0)
shell_i_$_274__0                                    1 	(obj:0)
shell_j_$_70__0                                     1 	(obj:0)
shell_j_$_52__0                                     1 	(obj:0)
shell_j_$_73__0                                     1 	(obj:0)
shell_j_$_302__0                                    1 	(obj:0)
shell_j_$_170__0                                    1 	(obj:0)
shell_j_$_40__0                                     1 	(obj:0)
shell_j_$_201__0                                    1 	(obj:0)
shell_j_$_286__0                                    1 	(obj:0)
shell_j_$_215__0                                    1 	(obj:0)
shell_j_$_59__0                                     1 	(obj:0)
shell_j_$_284__0                                    1 	(obj:0)
shell_j_$_300__0                                    1 	(obj:0)
shell_j_$_288__0                                    1 	(obj:0)
shell_j_$_228__0                                    1 	(obj:0)
shell_j_$_238__0                                    1 	(obj:0)
shell_i_$_61__0                                     1 	(obj:0)
shell_j_$_209__0                                    1 	(obj:0)
shell_i_$_258__0                                    1 	(obj:0)
shell_j_$_212__0                                    1 	(obj:0)
shell_i_$_166__0                                    1 	(obj:0)
shell_j_$_79__0                                     1 	(obj:0)
shell_j_$_287__0                                    1 	(obj:0)
shell_j_$_226__0                                    1 	(obj:0)
shell_j_$_283__0                                    1 	(obj:0)
shell_j_$_42__0                                     1 	(obj:0)
shell_j_$_175__0                                    1 	(obj:0)
shell_j_$_69__0                                     1 	(obj:0)
shell_j_$_279__0                                    1 	(obj:0)
shell_j_thingy.thingy.chamber[5].first.ring__0                    1 	(obj:0)
shell_j_$_270__0                                    1 	(obj:0)
shell_j_$_177__0                                    1 	(obj:0)
shell_j_$_233__0                                    1 	(obj:0)
shell_j_$_236__0                                    1 	(obj:0)
shell_j_$_219__0                                    1 	(obj:0)
shell_i_$_271__0                                    1 	(obj:0)
shell_j_$_203__0                                    1 	(obj:0)
shell_j_$_244__0                                    1 	(obj:0)
shell_j_$_223__0                                    1 	(obj:0)
shell_i_$_68__0                                     1 	(obj:0)
shell_j_$_46__0                                     1 	(obj:0)
shell_i_thingy.thingy.chamber[2].first.ring__0                    1 	(obj:0)
shell_i_$_295__0                                    1 	(obj:0)
shell_i_thingy.thingy.chamber[8].first.ring__0                    1 	(obj:0)
shell_j_$_208__0                                    1 	(obj:0)
shell_i_$_54__0                                     1 	(obj:0)
shell_i_$_290__0                                    1 	(obj:0)
shell_j_$_173__0                                    1 	(obj:0)
shell_j_$_267__0                                    1 	(obj:0)
shell_j_$_192__0                                    1 	(obj:0)
shell_i_$_289__0                                    1 	(obj:0)
shell_j_$_44__0                                     1 	(obj:0)
shell_i_thingy.thingy.chamber[7].first.ring__0                    1 	(obj:0)
shell_j_$_51__0                                     1 	(obj:0)
shell_i_$_66__0                                     1 	(obj:0)
shell_j_$_297__0                                    1 	(obj:0)
shell_j_$_204__0                                    1 	(obj:0)
shell_i_thingy.thingy.chamber[9].first.ring__0                    1 	(obj:0)
shell_i_$_263__0                                    1 	(obj:0)
shell_i_$_194__0                                    1 	(obj:0)
shell_i_$_292__0                                    1 	(obj:0)
shell_i_$_41__0                                     1 	(obj:0)
shell_j_$_65__0                                     1 	(obj:0)
shell_j_$_57__0                                     1 	(obj:0)
shell_j_$_252__0                                    1 	(obj:0)
shell_j_$_199__0                                    1 	(obj:0)
shell_j_$_187__0                                    1 	(obj:0)
shell_j_$_268__0                                    1 	(obj:0)
shell_j_$_257__0                                    1 	(obj:0)
shell_j_$_183__0                                    1 	(obj:0)
shell_j_$_168__0                                    1 	(obj:0)
shell_j_$_239__0                                    1 	(obj:0)
shell_j_$_53__0                                     1 	(obj:0)
shell_j_$_191__0                                    1 	(obj:0)
shell_j_$_67__0                                     1 	(obj:0)
shell_j_$_303__0                                    1 	(obj:0)
shell_j_$_251__0                                    1 	(obj:0)
shell_j_$_48__0                                     1 	(obj:0)
shell_j_$_185__0                                    1 	(obj:0)
shell_j_$_265__0                                    1 	(obj:0)
shell_j_$_193__0                                    1 	(obj:0)
shell_j_$_171__0                                    1 	(obj:0)
shell_j_$_77__0                                     1 	(obj:0)
shell_i_thingy.thingy.chamber[3].first.ring__0                    1 	(obj:0)
shell_j_$_63__0                                     1 	(obj:0)
shell_j_$_306__0                                    1 	(obj:0)
shell_j_$_58__0                                     1 	(obj:0)
shell_j_$_71                                        1 	(obj:0)
shell_j_$_75__0                                     1 	(obj:0)
shell_j_$_276__0                                    1 	(obj:0)
shell_i_$_305__0                                    1 	(obj:0)
shell_j_$_308__0                                    1 	(obj:0)
shell_j_$_255__0                                    1 	(obj:0)
shell_i_thingy.thingy.chamber[6].first.ring__0                    1 	(obj:0)
shell_j_$_72                                        1 	(obj:0)
shell_j_$_321__0                                    1 	(obj:0)
shell_j_$_207__0                                    1 	(obj:0)
shell_j_$_45__0                                     1 	(obj:0)
$_59__0_z                                          -6 	(obj:0)
$_217__0_z                                          2 	(obj:0)
$_284__0_x                                          2 	(obj:0)
$_284__0_y                                         -2 	(obj:0)
$_284__0_z                                          3 	(obj:0)
$_196__0_z                                         -3 	(obj:0)
$_300__0_x                                          2 	(obj:0)
$_300__0_y                                         -2 	(obj:0)
$_300__0_z                                          7 	(obj:0)
$_272__0_x                                          2 	(obj:0)
$_272__0_y                                         -2 	(obj:0)
$_288__0_x                                          1 	(obj:0)
$_288__0_y                                         -2 	(obj:0)
$_288__0_z                                         -6 	(obj:0)
$_272__0_z                                         -8 	(obj:0)
$_228__0_x                                         -2 	(obj:0)
$_228__0_y                                          2 	(obj:0)
$_228__0_z                                         -6 	(obj:0)
$_281__0_z                                         11 	(obj:0)
$_82__0_x                                           1 	(obj:0)
$_238__0_x                                          2 	(obj:0)
$_238__0_y                                         -2 	(obj:0)
$_238__0_z                                          5 	(obj:0)
$_82__0_y                                          -2 	(obj:0)
$_82__0_z                                           8 	(obj:0)
$_61__0_x                                           2 	(obj:0)
$_61__0_z                                          -6 	(obj:0)
$_240__0_y                                          2 	(obj:0)
$_209__0_y                                         -2 	(obj:0)
$_209__0_z                                         -5 	(obj:0)
thingy.thingy.chamber[1].first.ring__0_x                    2 	(obj:0)
thingy.thingy.chamber[1].first.ring__0_y                   -2 	(obj:0)
$_258__0_x                                          2 	(obj:0)
$_258__0_z                                         -4 	(obj:0)
thingy.thingy.chamber[1].first.ring__0_z                    6 	(obj:0)
$_240__0_z                                         -9 	(obj:0)
$_212__0_x                                          2 	(obj:0)
$_212__0_y                                         -2 	(obj:0)
$_212__0_z                                        -12 	(obj:0)
thingy.thingy.chamber[0].first.ring__0_x                    2 	(obj:0)
$_166__0_x                                          2 	(obj:0)
$_166__0_z                                         -5 	(obj:0)
$_55__0_y                                          -2 	(obj:0)
$_55__0_z                                           8 	(obj:0)
$_79__0_x                                           2 	(obj:0)
$_79__0_y                                          -2 	(obj:0)
$_79__0_z                                         -16 	(obj:0)
thingy.thingy.chamber[0].first.ring__0_y                   -2 	(obj:0)
$_287__0_x                                          1 	(obj:0)
$_287__0_y                                         -2 	(obj:0)
$_287__0_z                                         -4 	(obj:0)
$_254__0_y                                         -2 	(obj:0)
$_226__0_x                                          1 	(obj:0)
$_226__0_y                                         -2 	(obj:0)
$_226__0_z                                         -5 	(obj:0)
$_254__0_z                                          5 	(obj:0)
$_60__0_y                                          -2 	(obj:0)
$_283__0_x                                         -2 	(obj:0)
$_283__0_y                                         -2 	(obj:0)
$_283__0_z                                         10 	(obj:0)
$_60__0_z                                           6 	(obj:0)
$_74__0_x                                          -2 	(obj:0)
$_42__0_y                                           2 	(obj:0)
$_42__0_z                                         -12 	(obj:0)
$_74__0_y                                           2 	(obj:0)
$_74__0_z                                          15 	(obj:0)
$_175__0_x                                          2 	(obj:0)
$_175__0_y                                          2 	(obj:0)
$_175__0_z                                         -4 	(obj:0)
thingy.thingy.chamber[0].first.ring__0_z                   -4 	(obj:0)
$_210__0_z                                         -7 	(obj:0)
$_69__0_x                                           2 	(obj:0)
$_69__0_y                                          -2 	(obj:0)
$_69__0_z                                         -11 	(obj:0)
$_224__0_x                                          2 	(obj:0)
$_224__0_y                                          2 	(obj:0)
$_279__0_x                                          2 	(obj:0)
$_279__0_y                                         -2 	(obj:0)
$_279__0_z                                         -3 	(obj:0)
$_224__0_z                                          1 	(obj:0)
$_206__0_x                                          2 	(obj:0)
thingy.thingy.chamber[5].first.ring__0_y                   -2 	(obj:0)
thingy.thingy.chamber[5].first.ring__0_z                    1 	(obj:0)
$_206__0_y                                         -2 	(obj:0)
$_247__0_x                                         -2 	(obj:0)
$_270__0_x                                          1 	(obj:0)
$_270__0_y                                         -2 	(obj:0)
$_270__0_z                                         -2 	(obj:0)
$_247__0_y                                         -2 	(obj:0)
$_247__0_z                                          9 	(obj:0)
$_177__0_y                                          2 	(obj:0)
$_177__0_z                                          1 	(obj:0)
$_206__0_z                                          2 	(obj:0)
$_210__0_x                                         -2 	(obj:0)
$_233__0_x                                          2 	(obj:0)
$_233__0_y                                         -2 	(obj:0)
$_233__0_z                                        -10 	(obj:0)
$_235__0_x                                         -2 	(obj:0)
$_236__0_x                                         -2 	(obj:0)
$_236__0_y                                          2 	(obj:0)
$_236__0_z                                        -12 	(obj:0)
$_235__0_z                                         -5 	(obj:0)
$_219__0_x                                         -1 	(obj:0)
$_219__0_y                                         -2 	(obj:0)
$_219__0_z                                          3 	(obj:0)
$_260__0_x                                          2 	(obj:0)
$_256__0_x                                         -1 	(obj:0)
$_271__0_x                                         -2 	(obj:0)
$_271__0_z                                          3 	(obj:0)
$_256__0_y                                         -2 	(obj:0)
$_203__0_x                                          2 	(obj:0)
$_203__0_y                                          2 	(obj:0)
$_260__0_y                                         -2 	(obj:0)
$_260__0_z                                         -6 	(obj:0)
$_244__0_x                                         -1 	(obj:0)
$_244__0_y                                          2 	(obj:0)
$_244__0_z                                          4 	(obj:0)
$_62__0_x                                          -1 	(obj:0)
$_62__0_y                                          -2 	(obj:0)
$_223__0_x                                         -2 	(obj:0)
$_223__0_y                                          2 	(obj:0)
$_62__0_z                                         -25 	(obj:0)
$_176__0_y                                          2 	(obj:0)
$_68__0_x                                          -2 	(obj:0)
$_68__0_y                                          -1 	(obj:0)
$_68__0_z                                          -2 	(obj:0)
$_176__0_z                                          2 	(obj:0)
$_222__0_x                                          2 	(obj:0)
$_46__0_x                                          -2 	(obj:0)
$_46__0_y                                          -2 	(obj:0)
$_46__0_z                                          -2 	(obj:0)
$_222__0_y                                          2 	(obj:0)
$_222__0_z                                         -5 	(obj:0)
thingy.thingy.chamber[2].first.ring__0_x                    2 	(obj:0)
thingy.thingy.chamber[2].first.ring__0_z                    1 	(obj:0)
$_49_x                                             -1 	(obj:0)
$_49_y                                             -2 	(obj:0)
$_295__0_x                                         -2 	(obj:0)
$_295__0_y                                         -1 	(obj:0)
$_295__0_z                                         -4 	(obj:0)
$_50_x                                             -1 	(obj:0)
$_50_y                                             -2 	(obj:0)
thingy.thingy.chamber[8].first.ring__0_x                   -2 	(obj:0)
thingy.thingy.chamber[8].first.ring__0_z                   -1 	(obj:0)
$_50_z                                              2 	(obj:0)
$_49_z                                             -4 	(obj:0)
$_208__0_x                                          2 	(obj:0)
$_208__0_y                                          2 	(obj:0)
$_208__0_z                                          4 	(obj:0)
$_43__0_x                                          -1 	(obj:0)
$_80__0_x                                           2 	(obj:0)
$_54__0_x                                           2 	(obj:0)
$_54__0_y                                          -1 	(obj:0)
$_54__0_z                                          -6 	(obj:0)
$_80__0_y                                          -2 	(obj:0)
$_80__0_z                                         -13 	(obj:0)
$_290__0_x                                         -2 	(obj:0)
$_290__0_y                                         -1 	(obj:0)
$_290__0_z                                          7 	(obj:0)
$_43__0_y                                          -2 	(obj:0)
$_299__0_x                                          2 	(obj:0)
$_173__0_x                                          2 	(obj:0)
$_173__0_y                                          2 	(obj:0)
$_173__0_z                                          3 	(obj:0)
$_174__0_x                                         -2 	(obj:0)
$_174__0_y                                         -2 	(obj:0)
$_267__0_x                                          2 	(obj:0)
$_267__0_y                                         -2 	(obj:0)
$_267__0_z                                          9 	(obj:0)
$_174__0_z                                          6 	(obj:0)
$_299__0_y                                         -2 	(obj:0)
$_192__0_y                                          2 	(obj:0)
$_192__0_z                                         -4 	(obj:0)
$_299__0_z                                         -1 	(obj:0)
$_304__0_x                                         -1 	(obj:0)
$_289__0_x                                         -2 	(obj:0)
$_289__0_y                                         -1 	(obj:0)
$_289__0_z                                         -5 	(obj:0)
$_304__0_y                                         -2 	(obj:0)
$_304__0_z                                          4 	(obj:0)
$_44__0_x                                          -1 	(obj:0)
$_44__0_y                                          -2 	(obj:0)
$_44__0_z                                         -15 	(obj:0)
$_76__0_x                                          -1 	(obj:0)
$_76__0_y                                           2 	(obj:0)
thingy.thingy.chamber[7].first.ring__0_x                    2 	(obj:0)
thingy.thingy.chamber[7].first.ring__0_z                   -1 	(obj:0)
$_190__0_x                                         -2 	(obj:0)
$_51__0_x                                           2 	(obj:0)
$_51__0_y                                          -2 	(obj:0)
$_51__0_z                                          11 	(obj:0)
$_190__0_z                                         -4 	(obj:0)
thingy.thingy.chamber[4].first.ring__0_x                   -1 	(obj:0)
$_66__0_x                                          -2 	(obj:0)
$_66__0_y                                          -1 	(obj:0)
$_66__0_z                                         -25 	(obj:0)
thingy.thingy.chamber[4].first.ring__0_y                   -2 	(obj:0)
$_81__0_x                                          -2 	(obj:0)
$_297__0_x                                          2 	(obj:0)
$_297__0_y                                         -2 	(obj:0)
$_297__0_z                                         14 	(obj:0)
$_81__0_y                                          -2 	(obj:0)
$_81__0_z                                           7 	(obj:0)
$_204__0_x                                         -1 	(obj:0)
$_204__0_y                                          2 	(obj:0)
$_204__0_z                                          7 	(obj:0)
thingy.thingy.chamber[4].first.ring__0_z                   -5 	(obj:0)
$_76__0_z                                          -5 	(obj:0)
thingy.thingy.chamber[9].first.ring__0_x                   -2 	(obj:0)
thingy.thingy.chamber[9].first.ring__0_y                   -1 	(obj:0)
thingy.thingy.chamber[9].first.ring__0_z                    9 	(obj:0)
$_180__0_y                                         -2 	(obj:0)
$_263__0_x                                         -2 	(obj:0)
$_263__0_y                                         -1 	(obj:0)
$_263__0_z                                          8 	(obj:0)
$_180__0_z                                          4 	(obj:0)
$_43__0_z                                          -9 	(obj:0)
$_194__0_x                                          2 	(obj:0)
$_194__0_z                                         -2 	(obj:0)
$_64__0_x                                          -2 	(obj:0)
$_273__0_x                                         -1 	(obj:0)
$_292__0_x                                         -2 	(obj:0)
$_292__0_y                                         -1 	(obj:0)
$_273__0_y                                         -2 	(obj:0)
$_273__0_z                                         -3 	(obj:0)
$_41__0_x                                          -2 	(obj:0)
$_64__0_y                                          -2 	(obj:0)
$_64__0_z                                         -25 	(obj:0)
$_65__0_x                                          -1 	(obj:0)
$_65__0_y                                          -2 	(obj:0)
$_65__0_z                                         -10 	(obj:0)
$_241__0_y                                          2 	(obj:0)
$_57__0_y                                           2 	(obj:0)
$_57__0_z                                          -7 	(obj:0)
$_241__0_z                                         -5 	(obj:0)
$_210__0_y                                          2 	(obj:0)
$_252__0_x                                         -2 	(obj:0)
$_252__0_y                                         -2 	(obj:0)
$_252__0_z                                         -1 	(obj:0)
$_178__0_x                                          2 	(obj:0)
$_199__0_y                                          2 	(obj:0)
$_199__0_z                                          6 	(obj:0)
$_242__0_y                                         -2 	(obj:0)
$_187__0_y                                          2 	(obj:0)
$_187__0_z                                          7 	(obj:0)
$_320__0_x                                         -1 	(obj:0)
$_320__0_y                                         -2 	(obj:0)
$_268__0_x                                         -2 	(obj:0)
$_268__0_y                                         -2 	(obj:0)
$_268__0_z                                        -11 	(obj:0)
$_83__0_y                                           2 	(obj:0)
$_257__0_x                                         -2 	(obj:0)
$_257__0_y                                          2 	(obj:0)
$_257__0_z                                         -5 	(obj:0)
$_83__0_z                                          -1 	(obj:0)
$_320__0_z                                         -2 	(obj:0)
$_183__0_x                                          2 	(obj:0)
$_183__0_y                                          2 	(obj:0)
$_183__0_z                                         -7 	(obj:0)
$_178__0_y                                         -2 	(obj:0)
thingy.thingy.prep.ring__0_x                       -2 	(obj:0)
$_168__0_x                                          2 	(obj:0)
$_168__0_y                                          2 	(obj:0)
$_168__0_z                                         11 	(obj:0)
thingy.thingy.prep.ring__0_y                       -2 	(obj:0)
thingy.thingy.prep.ring__0_z                       -7 	(obj:0)
$_239__0_x                                          2 	(obj:0)
$_239__0_y                                          2 	(obj:0)
$_239__0_z                                          2 	(obj:0)
$_178__0_z                                          4 	(obj:0)
$_225__0_x                                         -2 	(obj:0)
$_53__0_x                                           2 	(obj:0)
$_53__0_y                                           2 	(obj:0)
$_53__0_z                                          -8 	(obj:0)
$_274__0_x                                         -2 	(obj:0)
$_191__0_x                                          2 	(obj:0)
$_191__0_y                                          2 	(obj:0)
$_191__0_z                                         -1 	(obj:0)
$_274__0_z                                          1 	(obj:0)
$_225__0_y                                         -2 	(obj:0)
$_67__0_x                                          -1 	(obj:0)
$_67__0_y                                          -2 	(obj:0)
$_67__0_z                                         -14 	(obj:0)
$_70__0_x                                          -2 	(obj:0)
$_303__0_x                                          2 	(obj:0)
$_303__0_y                                          2 	(obj:0)
$_303__0_z                                          6 	(obj:0)
$_70__0_y                                          -2 	(obj:0)
$_70__0_z                                          -9 	(obj:0)
$_251__0_x                                         -1 	(obj:0)
$_251__0_y                                          2 	(obj:0)
$_251__0_z                                          9 	(obj:0)
$_281__0_x                                         -2 	(obj:0)
$_220__0_x                                         -2 	(obj:0)
$_48__0_x                                          -2 	(obj:0)
$_48__0_y                                          -2 	(obj:0)
$_48__0_z                                          -4 	(obj:0)
$_52__0_x                                          -2 	(obj:0)
$_52__0_y                                          -2 	(obj:0)
$_185__0_x                                         -1 	(obj:0)
$_185__0_y                                          2 	(obj:0)
$_185__0_z                                          2 	(obj:0)
$_52__0_z                                          16 	(obj:0)
$_231__0_x                                          2 	(obj:0)
$_265__0_x                                         -2 	(obj:0)
$_265__0_y                                         -2 	(obj:0)
$_265__0_z                                         -3 	(obj:0)
$_231__0_y                                         -2 	(obj:0)
$_73__0_x                                          -2 	(obj:0)
$_193__0_x                                         -2 	(obj:0)
$_193__0_y                                          2 	(obj:0)
$_193__0_z                                          1 	(obj:0)
$_73__0_y                                           2 	(obj:0)
$_73__0_z                                          11 	(obj:0)
$_171__0_x                                          2 	(obj:0)
$_171__0_y                                          2 	(obj:0)
$_171__0_z                                          8 	(obj:0)
$_231__0_z                                         -5 	(obj:0)
$_249__0_x                                         -1 	(obj:0)
$_77__0_x                                          -1 	(obj:0)
$_77__0_y                                           2 	(obj:0)
$_77__0_z                                           8 	(obj:0)
$_302__0_x                                         -2 	(obj:0)
$_302__0_y                                          2 	(obj:0)
thingy.thingy.chamber[3].first.ring__0_x                   -2 	(obj:0)
thingy.thingy.chamber[3].first.ring__0_z                   -6 	(obj:0)
$_302__0_z                                         -1 	(obj:0)
$_249__0_y                                         -2 	(obj:0)
$_63__0_x                                          -1 	(obj:0)
$_63__0_y                                          -2 	(obj:0)
$_63__0_z                                         -11 	(obj:0)
$_306__0_x                                         -1 	(obj:0)
$_306__0_y                                          2 	(obj:0)
$_306__0_z                                          1 	(obj:0)
$_170__0_y                                          2 	(obj:0)
$_170__0_z                                          5 	(obj:0)
$_58__0_y                                          -2 	(obj:0)
$_58__0_z                                         -13 	(obj:0)
$_47__0_y                                           2 	(obj:0)
$_47__0_z                                          -2 	(obj:0)
$_71_x                                             -1 	(obj:0)
$_71_y                                             -2 	(obj:0)
$_71_z                                              6 	(obj:0)
$_40__0_x                                          -1 	(obj:0)
$_40__0_y                                          -2 	(obj:0)
$_75__0_x                                          -2 	(obj:0)
$_75__0_y                                          -2 	(obj:0)
$_75__0_z                                          13 	(obj:0)
$_40__0_z                                         -12 	(obj:0)
$_249__0_z                                         -1 	(obj:0)
$_276__0_x                                         -1 	(obj:0)
$_276__0_y                                         -2 	(obj:0)
$_276__0_z                                          1 	(obj:0)
$_220__0_y                                         -2 	(obj:0)
$_201__0_x                                         -2 	(obj:0)
$_305__0_x                                         -2 	(obj:0)
$_305__0_y                                         -1 	(obj:0)
$_305__0_z                                          1 	(obj:0)
$_201__0_y                                         -2 	(obj:0)
$_201__0_z                                        -12 	(obj:0)
$_308__0_y                                          2 	(obj:0)
$_308__0_z                                         10 	(obj:0)
$_188__0_x                                         -2 	(obj:0)
$_188__0_y                                         -1 	(obj:0)
$_255__0_x                                         -2 	(obj:0)
$_255__0_y                                         -2 	(obj:0)
$_255__0_z                                         -5 	(obj:0)
$_286__0_x                                         -2 	(obj:0)
$_286__0_y                                         -2 	(obj:0)
thingy.thingy.chamber[6].first.ring__0_x                   -2 	(obj:0)
thingy.thingy.chamber[6].first.ring__0_y                   -1 	(obj:0)
thingy.thingy.chamber[6].first.ring__0_z                    2 	(obj:0)
$_286__0_z                                          8 	(obj:0)
$_188__0_z                                          6 	(obj:0)
$_72_x                                             -2 	(obj:0)
$_72_y                                             -2 	(obj:0)
$_72_z                                              1 	(obj:0)
$_220__0_z                                          2 	(obj:0)
$_215__0_x                                         -2 	(obj:0)
$_321__0_y                                          2 	(obj:0)
$_215__0_y                                          2 	(obj:0)
$_215__0_z                                          7 	(obj:0)
$_207__0_x                                         -1 	(obj:0)
$_207__0_y                                          2 	(obj:0)
$_207__0_z                                         -7 	(obj:0)
$_196__0_x                                          2 	(obj:0)
$_217__0_x                                         -2 	(obj:0)
$_45__0_y                                          -2 	(obj:0)
$_45__0_z                                         -12 	(obj:0)
$_59__0_x                                          -2 	(obj:0)
$_59__0_y                                          -2 	(obj:0)
